% seed = 7115311

mint = 66;
% maxt = 245;

nActs = 42;
dur = [0,2,2,2,1,5,7,9,4,5,7,9,2,9,10,8,9,4,9,10,2,6,10,3,5,4,10,5,5,5,4,10,6,9,9,1,3,9,10,9,6,0];

nSkills = 4;
sreq = [| 0,0,0,0,
	| 0,3,3,1,
	| 1,3,2,0,
	| 0,6,5,4,
	| 6,4,0,3,
	| 1,0,7,3,
	| 5,4,0,5,
	| 3,4,3,0,
	| 5,0,2,3,
	| 3,0,4,3,
	| 5,7,0,4,
	| 0,2,5,6,
	| 5,5,3,0,
	| 7,6,0,3,
	| 0,2,3,6,
	| 0,4,3,4,
	| 3,2,0,5,
	| 7,3,6,0,
	| 3,0,4,5,
	| 4,3,0,7,
	| 4,2,4,0,
	| 7,3,1,0,
	| 0,3,7,5,
	| 4,0,5,2,
	| 4,2,0,4,
	| 0,4,5,4,
	| 5,3,2,0,
	| 3,7,0,6,
	| 0,4,4,3,
	| 1,5,0,6,
	| 0,4,5,5,
	| 3,5,0,3,
	| 6,0,5,2,
	| 3,5,0,4,
	| 4,2,0,7,
	| 0,3,7,4,
	| 5,0,4,5,
	| 3,2,2,0,
	| 4,3,3,0,
	| 4,2,0,5,
	| 7,4,0,3,
	| 0,0,0,0, |];

nResources = 38;
mastery = [| true,false,true,false,
	| false,true,false,false,
	| true,false,false,false,
	| false,true,false,false,
	| false,true,false,false,
	| true,false,true,true,
	| true,false,false,true,
	| true,true,false,true,
	| true,false,false,true,
	| false,true,false,true,
	| true,true,true,false,
	| true,true,false,false,
	| false,true,true,false,
	| false,true,false,true,
	| false,false,false,true,
	| false,false,true,true,
	| false,false,true,true,
	| false,false,true,false,
	| true,false,false,false,
	| false,false,false,true,
	| false,false,true,true,
	| true,false,false,false,
	| false,false,true,false,
	| true,true,true,false,
	| true,false,false,false,
	| true,true,false,true,
	| false,true,true,false,
	| false,true,true,true,
	| false,true,false,false,
	| true,false,false,false,
	| false,true,false,false,
	| false,false,true,true,
	| false,false,true,true,
	| true,false,true,true,
	| false,true,false,false,
	| false,true,true,true,
	| false,true,false,false,
	| false,false,true,false, |];

nPrecs = 73;
pred = [1,1,1,2,2,2,3,3,4,4,5,5,5,6,6,6,7,7,7,8,9,10,10,11,11,11,12,12,12,13,13,13,14,14,14,15,15,15,16,16,17,17,17,18,19,19,20,21,22,23,23,24,24,25,26,27,28,29,30,31,32,33,34,34,34,35,35,36,37,38,39,40,41];
succ = [2,3,4,34,12,21,21,14,20,5,9,6,8,10,13,7,33,22,16,31,39,11,15,25,22,30,17,26,24,34,28,21,17,27,40,18,24,16,26,36,19,20,31,30,37,23,25,22,29,33,30,25,32,35,29,32,31,32,38,38,36,36,35,37,40,41,39,38,39,41,42,42,42];

nUnrels = 452;
unpred = [2,2,2,2,2,2,2,2,2,2,2,2,2,2,2,2,3,3,3,3,3,3,3,3,3,3,3,3,3,3,3,3,3,4,4,4,4,4,4,5,5,5,5,5,5,5,6,6,6,6,6,6,6,6,6,7,7,7,7,7,7,7,7,7,7,7,7,7,7,7,7,7,7,7,7,7,7,7,7,7,8,8,8,8,8,8,8,8,8,8,8,8,8,8,8,8,8,8,8,8,8,8,8,8,8,8,8,8,8,8,9,9,9,9,9,9,9,9,9,9,9,9,9,9,9,9,9,9,9,9,9,9,9,9,9,9,9,9,9,9,9,10,10,10,10,10,10,10,10,10,10,10,10,10,10,10,11,11,11,11,11,11,11,11,11,11,11,11,11,11,11,11,11,11,11,11,12,12,12,12,12,12,12,12,12,12,12,13,13,13,13,13,13,13,13,13,13,13,13,13,13,14,14,14,14,14,14,14,14,14,14,15,15,15,15,15,15,15,15,15,15,15,15,15,16,16,16,16,16,16,16,16,16,16,16,16,16,16,16,16,16,16,16,17,17,17,17,17,17,17,17,17,17,17,18,18,18,18,18,18,18,18,18,18,18,18,18,18,18,18,18,18,18,18,19,19,19,19,19,19,19,19,19,19,19,19,19,19,20,20,20,20,20,20,20,20,20,20,20,20,20,20,20,20,20,21,21,21,21,21,21,21,21,21,21,21,21,21,21,22,22,22,22,22,22,22,22,22,22,22,22,22,22,23,23,23,23,23,23,23,23,23,23,23,23,23,24,24,24,24,24,24,24,24,24,24,25,25,25,25,25,25,25,25,25,25,25,25,25,26,26,26,26,26,26,26,26,26,26,27,27,27,27,27,27,27,27,27,27,28,28,28,28,28,28,28,28,28,28,29,29,29,29,29,29,29,29,30,30,30,30,30,30,30,30,30,31,31,31,31,31,31,31,31,32,32,32,32,32,32,33,33,33,33,33,34,34,35,35,35,35,36,36,36,37,37,37,38,38,39,39,40];
unsucc = [3,4,5,6,7,8,9,10,11,13,14,15,16,18,27,28,4,5,6,7,8,9,10,11,12,13,15,16,18,24,26,28,34,12,14,17,19,23,27,12,14,17,19,20,23,27,8,9,12,14,17,19,20,23,27,8,9,10,11,12,13,14,15,17,18,19,20,21,23,24,25,27,28,30,31,34,35,37,39,40,9,10,11,12,13,14,15,16,17,18,19,20,21,22,23,24,25,26,27,28,29,30,32,33,34,35,36,37,39,40,10,11,12,13,14,15,16,17,18,19,20,21,22,23,24,25,26,27,28,29,30,31,32,33,34,35,36,37,38,40,41,12,13,14,17,19,20,21,23,27,28,31,33,34,37,40,12,13,14,15,16,17,18,19,20,21,23,24,26,27,28,31,33,34,37,40,13,14,15,16,18,21,22,27,28,34,40,14,15,16,17,18,19,20,23,24,25,26,27,30,33,15,16,18,21,22,24,26,28,29,34,17,19,20,21,22,23,27,28,31,33,34,37,40,17,18,19,20,21,22,23,24,25,27,28,30,31,33,34,35,37,39,40,18,21,22,24,26,27,28,29,32,34,40,19,20,21,22,23,24,25,26,27,28,29,31,32,33,34,35,36,37,39,40,20,21,22,24,25,26,27,28,29,31,32,34,35,40,21,22,23,24,26,27,28,29,30,31,32,33,34,36,37,38,40,23,24,25,26,27,28,30,31,33,34,35,37,39,40,23,24,25,26,27,28,30,31,33,34,35,37,39,40,24,25,26,27,28,29,31,32,34,35,37,39,40,26,27,28,29,30,31,33,34,37,40,26,27,28,29,30,31,32,33,34,36,37,38,40,27,28,30,31,33,34,35,37,39,40,28,29,30,31,33,34,35,37,39,40,29,30,32,33,34,35,36,37,39,40,30,31,33,34,35,37,39,40,31,32,33,34,35,36,37,39,40,32,33,34,35,36,37,39,40,33,34,35,37,39,40,34,35,37,39,40,36,38,36,37,38,40,37,39,40,38,40,41,39,40,40,41,41];

USEFUL_RES = [{},
	{1,2,4,5,6,7,8,9,10,11,12,13,14,15,16,17,18,20,21,23,24,26,27,28,29,31,32,33,34,35,36,37,38},
	{1,2,3,4,5,6,7,8,9,10,11,12,13,14,16,17,18,19,21,22,23,24,25,26,27,28,29,30,31,32,33,34,35,36,37,38},
	{1,2,4,5,6,7,8,9,10,11,12,13,14,15,16,17,18,20,21,23,24,26,27,28,29,31,32,33,34,35,36,37,38},
	{1,2,3,4,5,6,7,8,9,10,11,12,13,14,15,16,17,19,20,21,22,24,25,26,27,28,29,30,31,32,33,34,35,36,37},
	{1,3,6,7,8,9,10,11,12,13,14,15,16,17,18,19,20,21,22,23,24,25,26,27,28,30,32,33,34,36,38},
	{1,2,3,4,5,6,7,8,9,10,11,12,13,14,15,16,17,19,20,21,22,24,25,26,27,28,29,30,31,32,33,34,35,36,37},
	{1,2,3,4,5,6,7,8,9,10,11,12,13,14,16,17,18,19,21,22,23,24,25,26,27,28,29,30,31,32,33,34,35,36,37,38},
	{1,3,6,7,8,9,10,11,12,13,14,15,16,17,18,19,20,21,22,23,24,25,26,27,28,30,32,33,34,36,38},
	{1,3,6,7,8,9,10,11,12,13,14,15,16,17,18,19,20,21,22,23,24,25,26,27,28,30,32,33,34,36,38},
	{1,2,3,4,5,6,7,8,9,10,11,12,13,14,15,16,17,19,20,21,22,24,25,26,27,28,29,30,31,32,33,34,35,36,37},
	{1,2,4,5,6,7,8,9,10,11,12,13,14,15,16,17,18,20,21,23,24,26,27,28,29,31,32,33,34,35,36,37,38},
	{1,2,3,4,5,6,7,8,9,10,11,12,13,14,16,17,18,19,21,22,23,24,25,26,27,28,29,30,31,32,33,34,35,36,37,38},
	{1,2,3,4,5,6,7,8,9,10,11,12,13,14,15,16,17,19,20,21,22,24,25,26,27,28,29,30,31,32,33,34,35,36,37},
	{1,2,4,5,6,7,8,9,10,11,12,13,14,15,16,17,18,20,21,23,24,26,27,28,29,31,32,33,34,35,36,37,38},
	{1,2,4,5,6,7,8,9,10,11,12,13,14,15,16,17,18,20,21,23,24,26,27,28,29,31,32,33,34,35,36,37,38},
	{1,2,3,4,5,6,7,8,9,10,11,12,13,14,15,16,17,19,20,21,22,24,25,26,27,28,29,30,31,32,33,34,35,36,37},
	{1,2,3,4,5,6,7,8,9,10,11,12,13,14,16,17,18,19,21,22,23,24,25,26,27,28,29,30,31,32,33,34,35,36,37,38},
	{1,3,6,7,8,9,10,11,12,13,14,15,16,17,18,19,20,21,22,23,24,25,26,27,28,30,32,33,34,36,38},
	{1,2,3,4,5,6,7,8,9,10,11,12,13,14,15,16,17,19,20,21,22,24,25,26,27,28,29,30,31,32,33,34,35,36,37},
	{1,2,3,4,5,6,7,8,9,10,11,12,13,14,16,17,18,19,21,22,23,24,25,26,27,28,29,30,31,32,33,34,35,36,37,38},
	{1,2,3,4,5,6,7,8,9,10,11,12,13,14,16,17,18,19,21,22,23,24,25,26,27,28,29,30,31,32,33,34,35,36,37,38},
	{1,2,4,5,6,7,8,9,10,11,12,13,14,15,16,17,18,20,21,23,24,26,27,28,29,31,32,33,34,35,36,37,38},
	{1,3,6,7,8,9,10,11,12,13,14,15,16,17,18,19,20,21,22,23,24,25,26,27,28,30,32,33,34,36,38},
	{1,2,3,4,5,6,7,8,9,10,11,12,13,14,15,16,17,19,20,21,22,24,25,26,27,28,29,30,31,32,33,34,35,36,37},
	{1,2,4,5,6,7,8,9,10,11,12,13,14,15,16,17,18,20,21,23,24,26,27,28,29,31,32,33,34,35,36,37,38},
	{1,2,3,4,5,6,7,8,9,10,11,12,13,14,16,17,18,19,21,22,23,24,25,26,27,28,29,30,31,32,33,34,35,36,37,38},
	{1,2,3,4,5,6,7,8,9,10,11,12,13,14,15,16,17,19,20,21,22,24,25,26,27,28,29,30,31,32,33,34,35,36,37},
	{1,2,4,5,6,7,8,9,10,11,12,13,14,15,16,17,18,20,21,23,24,26,27,28,29,31,32,33,34,35,36,37,38},
	{1,2,3,4,5,6,7,8,9,10,11,12,13,14,15,16,17,19,20,21,22,24,25,26,27,28,29,30,31,32,33,34,35,36,37},
	{1,2,4,5,6,7,8,9,10,11,12,13,14,15,16,17,18,20,21,23,24,26,27,28,29,31,32,33,34,35,36,37,38},
	{1,2,3,4,5,6,7,8,9,10,11,12,13,14,15,16,17,19,20,21,22,24,25,26,27,28,29,30,31,32,33,34,35,36,37},
	{1,3,6,7,8,9,10,11,12,13,14,15,16,17,18,19,20,21,22,23,24,25,26,27,28,30,32,33,34,36,38},
	{1,2,3,4,5,6,7,8,9,10,11,12,13,14,15,16,17,19,20,21,22,24,25,26,27,28,29,30,31,32,33,34,35,36,37},
	{1,2,3,4,5,6,7,8,9,10,11,12,13,14,15,16,17,19,20,21,22,24,25,26,27,28,29,30,31,32,33,34,35,36,37},
	{1,2,4,5,6,7,8,9,10,11,12,13,14,15,16,17,18,20,21,23,24,26,27,28,29,31,32,33,34,35,36,37,38},
	{1,3,6,7,8,9,10,11,12,13,14,15,16,17,18,19,20,21,22,23,24,25,26,27,28,30,32,33,34,36,38},
	{1,2,3,4,5,6,7,8,9,10,11,12,13,14,16,17,18,19,21,22,23,24,25,26,27,28,29,30,31,32,33,34,35,36,37,38},
	{1,2,3,4,5,6,7,8,9,10,11,12,13,14,16,17,18,19,21,22,23,24,25,26,27,28,29,30,31,32,33,34,35,36,37,38},
	{1,2,3,4,5,6,7,8,9,10,11,12,13,14,15,16,17,19,20,21,22,24,25,26,27,28,29,30,31,32,33,34,35,36,37},
	{1,2,3,4,5,6,7,8,9,10,11,12,13,14,15,16,17,19,20,21,22,24,25,26,27,28,29,30,31,32,33,34,35,36,37},
	{}];

POTENTIAL_ACT = [{2,3,4,5,6,7,8,9,10,11,12,13,14,15,16,17,18,19,20,21,22,23,24,25,26,27,28,29,30,31,32,33,34,35,36,37,38,39,40,41},
	{2,3,4,5,7,8,11,12,13,14,15,16,17,18,20,21,22,23,25,26,27,28,29,30,31,32,34,35,36,38,39,40,41},
	{3,5,6,7,8,9,10,11,13,14,17,18,19,20,21,22,24,25,27,28,30,32,33,34,35,37,38,39,40,41},
	{2,3,4,5,7,8,11,12,13,14,15,16,17,18,20,21,22,23,25,26,27,28,29,30,31,32,34,35,36,38,39,40,41},
	{2,3,4,5,7,8,11,12,13,14,15,16,17,18,20,21,22,23,25,26,27,28,29,30,31,32,34,35,36,38,39,40,41},
	{2,3,4,5,6,7,8,9,10,11,12,13,14,15,16,17,18,19,20,21,22,23,24,25,26,27,28,29,30,31,32,33,34,35,36,37,38,39,40,41},
	{2,3,4,5,6,7,8,9,10,11,12,13,14,15,16,17,18,19,20,21,22,23,24,25,26,27,28,29,30,31,32,33,34,35,36,37,38,39,40,41},
	{2,3,4,5,6,7,8,9,10,11,12,13,14,15,16,17,18,19,20,21,22,23,24,25,26,27,28,29,30,31,32,33,34,35,36,37,38,39,40,41},
	{2,3,4,5,6,7,8,9,10,11,12,13,14,15,16,17,18,19,20,21,22,23,24,25,26,27,28,29,30,31,32,33,34,35,36,37,38,39,40,41},
	{2,3,4,5,6,7,8,9,10,11,12,13,14,15,16,17,18,19,20,21,22,23,24,25,26,27,28,29,30,31,32,33,34,35,36,37,38,39,40,41},
	{2,3,4,5,6,7,8,9,10,11,12,13,14,15,16,17,18,19,20,21,22,23,24,25,26,27,28,29,30,31,32,33,34,35,36,37,38,39,40,41},
	{2,3,4,5,6,7,8,9,10,11,12,13,14,15,16,17,18,19,20,21,22,23,24,25,26,27,28,29,30,31,32,33,34,35,36,37,38,39,40,41},
	{2,3,4,5,6,7,8,9,10,11,12,13,14,15,16,17,18,19,20,21,22,23,24,25,26,27,28,29,30,31,32,33,34,35,36,37,38,39,40,41},
	{2,3,4,5,6,7,8,9,10,11,12,13,14,15,16,17,18,19,20,21,22,23,24,25,26,27,28,29,30,31,32,33,34,35,36,37,38,39,40,41},
	{2,4,5,6,7,9,10,11,12,14,15,16,17,19,20,23,24,25,26,28,29,30,31,32,33,34,35,36,37,40,41},
	{2,3,4,5,6,7,8,9,10,11,12,13,14,15,16,17,18,19,20,21,22,23,24,25,26,27,28,29,30,31,32,33,34,35,36,37,38,39,40,41},
	{2,3,4,5,6,7,8,9,10,11,12,13,14,15,16,17,18,19,20,21,22,23,24,25,26,27,28,29,30,31,32,33,34,35,36,37,38,39,40,41},
	{2,3,4,6,8,9,10,12,13,15,16,18,19,21,22,23,24,26,27,29,31,33,36,37,38,39},
	{3,5,6,7,8,9,10,11,13,14,17,18,19,20,21,22,24,25,27,28,30,32,33,34,35,37,38,39,40,41},
	{2,4,5,6,7,9,10,11,12,14,15,16,17,19,20,23,24,25,26,28,29,30,31,32,33,34,35,36,37,40,41},
	{2,3,4,5,6,7,8,9,10,11,12,13,14,15,16,17,18,19,20,21,22,23,24,25,26,27,28,29,30,31,32,33,34,35,36,37,38,39,40,41},
	{3,5,6,7,8,9,10,11,13,14,17,18,19,20,21,22,24,25,27,28,30,32,33,34,35,37,38,39,40,41},
	{2,3,4,6,8,9,10,12,13,15,16,18,19,21,22,23,24,26,27,29,31,33,36,37,38,39},
	{2,3,4,5,6,7,8,9,10,11,12,13,14,15,16,17,18,19,20,21,22,23,24,25,26,27,28,29,30,31,32,33,34,35,36,37,38,39,40,41},
	{3,5,6,7,8,9,10,11,13,14,17,18,19,20,21,22,24,25,27,28,30,32,33,34,35,37,38,39,40,41},
	{2,3,4,5,6,7,8,9,10,11,12,13,14,15,16,17,18,19,20,21,22,23,24,25,26,27,28,29,30,31,32,33,34,35,36,37,38,39,40,41},
	{2,3,4,5,6,7,8,9,10,11,12,13,14,15,16,17,18,19,20,21,22,23,24,25,26,27,28,29,30,31,32,33,34,35,36,37,38,39,40,41},
	{2,3,4,5,6,7,8,9,10,11,12,13,14,15,16,17,18,19,20,21,22,23,24,25,26,27,28,29,30,31,32,33,34,35,36,37,38,39,40,41},
	{2,3,4,5,7,8,11,12,13,14,15,16,17,18,20,21,22,23,25,26,27,28,29,30,31,32,34,35,36,38,39,40,41},
	{3,5,6,7,8,9,10,11,13,14,17,18,19,20,21,22,24,25,27,28,30,32,33,34,35,37,38,39,40,41},
	{2,3,4,5,7,8,11,12,13,14,15,16,17,18,20,21,22,23,25,26,27,28,29,30,31,32,34,35,36,38,39,40,41},
	{2,3,4,5,6,7,8,9,10,11,12,13,14,15,16,17,18,19,20,21,22,23,24,25,26,27,28,29,30,31,32,33,34,35,36,37,38,39,40,41},
	{2,3,4,5,6,7,8,9,10,11,12,13,14,15,16,17,18,19,20,21,22,23,24,25,26,27,28,29,30,31,32,33,34,35,36,37,38,39,40,41},
	{2,3,4,5,6,7,8,9,10,11,12,13,14,15,16,17,18,19,20,21,22,23,24,25,26,27,28,29,30,31,32,33,34,35,36,37,38,39,40,41},
	{2,3,4,5,7,8,11,12,13,14,15,16,17,18,20,21,22,23,25,26,27,28,29,30,31,32,34,35,36,38,39,40,41},
	{2,3,4,5,6,7,8,9,10,11,12,13,14,15,16,17,18,19,20,21,22,23,24,25,26,27,28,29,30,31,32,33,34,35,36,37,38,39,40,41},
	{2,3,4,5,7,8,11,12,13,14,15,16,17,18,20,21,22,23,25,26,27,28,29,30,31,32,34,35,36,38,39,40,41},
	{2,3,4,6,8,9,10,12,13,15,16,18,19,21,22,23,24,26,27,29,31,33,36,37,38,39}];
